c Sample Graph with 5 variables and 4 clauses
c [u, v, s, t, q]
c Boolean formula is: [[1,2,-3,-4,-5],[1,-2,3,-4,-5],[-1,-2,3,4,-5],[-1,-2,3,-4,5]]
c SATISFIABLE
c
p cnf 5 4
1 2 -3 -4 -5 0
1 -2 3 -4 -5 0
-1 -2 3 4 -5 0
-1 -2 3 -4 5 0

